(set-info :source |printed by MathSAT|)
(declare-fun |.x{37}| () (Array Int Int))
(declare-fun |.x{40}| () (Array Int Int))
(declare-fun |.x{38}| () Int)
(declare-fun |.x{41}| () Int)
(declare-fun |.x{39}| () Int)
(declare-fun |.x{42}| () Int)
(declare-fun |.loc{3}| () Bool)
(declare-fun |.loc{5}| () Bool)
(declare-fun |.loc{4}| () Bool)
(declare-fun |.loc{6}| () Bool)
(declare-fun |.x{46}| () Int)
(declare-fun |.x{53}| () Int)
(define-fun .def_14 () Bool (! |.loc{3}| :next |.loc{5}|))
(define-fun .def_27 () Bool (not .def_14))
(define-fun .def_16 () Bool (! |.loc{4}| :next |.loc{6}|))
(define-fun .def_25 () Bool (not .def_16))
(define-fun .def_105 () Bool (and .def_25 .def_27))
(define-fun .def_10 () Int (! |.x{38}| :next |.x{41}|))
(define-fun .def_104 () Bool (= .def_10 0))
(define-fun .def_106 () Bool (! (and .def_104 .def_105) :init true))
(define-fun .def_12 () Int (! |.x{39}| :next |.x{42}|))
(define-fun .def_102 () Bool (= .def_12 |.x{42}|))
(define-fun .def_79 () Bool (= |.x{41}| 0))
(define-fun .def_32 () Bool (<= .def_12 .def_10))
(define-fun .def_90 () Bool (and .def_32 .def_79))
(define-fun .def_91 () Bool (and .def_27 .def_90))
(define-fun .def_8 () (Array Int Int) (! |.x{37}| :next |.x{40}|))
(define-fun .def_64 () Bool (= .def_8 |.x{40}|))
(define-fun .def_92 () Bool (and .def_64 .def_91))
(define-fun .def_66 () Bool (<= |.x{46}| .def_10))
(define-fun .def_67 () Bool (not .def_66))
(define-fun .def_86 () Bool (and .def_14 .def_67))
(define-fun .def_40 () Int (select .def_8 .def_10))
(define-fun .def_71 () Int (* (- 1) |.x{46}|))
(define-fun .def_73 () Int (+ .def_71 .def_40))
(define-fun .def_74 () (Array Int Int) (store .def_8 .def_10 .def_73))
(define-fun .def_75 () Bool (= |.x{40}| .def_74))
(define-fun .def_87 () Bool (and .def_75 .def_86))
(define-fun .def_33 () Bool (not .def_32))
(define-fun .def_88 () Bool (and .def_33 .def_87))
(define-fun .def_36 () Int (* (- 1) |.x{41}|))
(define-fun .def_37 () Int (+ .def_10 .def_36))
(define-fun .def_38 () Bool (= .def_37 (- 1)))
(define-fun .def_89 () Bool (and .def_38 .def_88))
(define-fun .def_93 () Bool (or .def_89 .def_92))
(define-fun .def_94 () Bool (and .def_16 .def_93))
(define-fun .def_95 () Bool (and |.loc{5}| .def_94))
(define-fun .def_51 () Bool (<= 0 .def_10))
(define-fun .def_83 () Bool (not .def_51))
(define-fun .def_21 () Bool (not |.loc{5}|))
(define-fun .def_80 () Bool (and .def_21 .def_79))
(define-fun .def_81 () Bool (and .def_25 .def_80))
(define-fun .def_82 () Bool (and .def_14 .def_81))
(define-fun .def_84 () Bool (and .def_82 .def_83))
(define-fun .def_85 () Bool (and .def_64 .def_84))
(define-fun .def_96 () Bool (or .def_85 .def_95))
(define-fun .def_68 () Bool (and .def_21 .def_67))
(define-fun .def_69 () Bool (and .def_16 .def_68))
(define-fun .def_70 () Bool (and .def_27 .def_69))
(define-fun .def_76 () Bool (and .def_70 .def_75))
(define-fun .def_77 () Bool (and .def_33 .def_76))
(define-fun .def_78 () Bool (and .def_38 .def_77))
(define-fun .def_97 () Bool (or .def_78 .def_96))
(define-fun .def_98 () Bool (and |.loc{6}| .def_97))
(define-fun .def_57 () Int (* (- 1) .def_12))
(define-fun .def_58 () Int (+ |.x{41}| .def_57))
(define-fun .def_59 () Bool (= .def_58 (- 1)))
(define-fun .def_23 () Bool (not |.loc{6}|))
(define-fun .def_55 () Bool (and .def_23 .def_25))
(define-fun .def_60 () Bool (and .def_55 .def_59))
(define-fun .def_61 () Bool (and .def_32 .def_60))
(define-fun .def_62 () Bool (and .def_27 .def_61))
(define-fun .def_63 () Bool (and |.loc{5}| .def_62))
(define-fun .def_65 () Bool (and .def_63 .def_64))
(define-fun .def_99 () Bool (or .def_65 .def_98))
(define-fun .def_46 () Bool (= .def_37 1))
(define-fun .def_41 () Int (+ |.x{46}| .def_40))
(define-fun .def_42 () (Array Int Int) (store .def_8 .def_10 .def_41))
(define-fun .def_43 () Bool (= |.x{40}| .def_42))
(define-fun .def_19 () Bool (<= .def_10 |.x{46}|))
(define-fun .def_20 () Bool (not .def_19))
(define-fun .def_44 () Bool (and .def_20 .def_43))
(define-fun .def_47 () Bool (and .def_44 .def_46))
(define-fun .def_48 () Bool (and .def_23 .def_47))
(define-fun .def_49 () Bool (and .def_25 .def_48))
(define-fun .def_52 () Bool (and .def_49 .def_51))
(define-fun .def_53 () Bool (and .def_14 .def_52))
(define-fun .def_54 () Bool (and |.loc{5}| .def_53))
(define-fun .def_100 () Bool (or .def_54 .def_99))
(define-fun .def_29 () (Array Int Int) (store .def_8 .def_10 |.x{46}|))
(define-fun .def_30 () Bool (= |.x{40}| .def_29))
(define-fun .def_22 () Bool (and .def_20 .def_21))
(define-fun .def_24 () Bool (and .def_22 .def_23))
(define-fun .def_26 () Bool (and .def_24 .def_25))
(define-fun .def_28 () Bool (and .def_26 .def_27))
(define-fun .def_31 () Bool (and .def_28 .def_30))
(define-fun .def_34 () Bool (and .def_31 .def_33))
(define-fun .def_39 () Bool (and .def_34 .def_38))
(define-fun .def_101 () Bool (or .def_39 .def_100))
(define-fun .def_103 () Bool (! (and .def_101 .def_102) :trans true))
(define-fun .def_107 () Int (! |.x{53}| :next |.xpv{1}|))
(define-fun .def_117 () Bool (and .def_14 .def_16))
(define-fun .def_112 () Bool (<= .def_107 0))
(define-fun .def_113 () Bool (not .def_112))
(define-fun .def_114 () Bool (and .def_32 .def_113))
(define-fun .def_110 () Bool (<= .def_12 .def_107))
(define-fun .def_111 () Bool (not .def_110))
(define-fun .def_115 () Bool (and .def_111 .def_114))
(define-fun .def_108 () Int (select .def_8 .def_107))
(define-fun .def_109 () Bool (<= 0 .def_108))
(define-fun .def_116 () Bool (and .def_109 .def_115))
(define-fun .def_118 () Bool (and .def_116 .def_117))
(define-fun .def_120 () Bool (! (not .def_118) :invar-property 0))
(assert true)
